RAW/CMTQ/fspd/CMT12Q.vrp_seed-8.out
729.3102176	0.552	26.634
