RAW/CMTQ/fspd/CMT12Q.vrp_seed-8.sol
Route #1: 67 65 63 74 62 66 69 41 42 43
Route #2: 21 22 25 27 30 28 26 23 7 4 2 1 75
Route #3: 87 86 84 83 82 81 78 76 71 70 73 77 79 80 72 61 64 68
Route #4: 49 52 50 51 31 32 33 35 37 38 39 36 34 29 24 20
Route #5: 47 46 48 45 44 59 60 58 56 53 54 55 57 40
Route #6: 10 11 13 17 18 19 15 16 14 12 9 8 6 3 5
Route #7: 90 91 89 88 85 98 96 95 94 92 93 97 100 99
Cost 729.310218